Tasks lengths
[44, 55, 60, 61, 61, 66, 78, 79, 79, 80, 83, 84, 93, 94, 97, 99, 109, 109, 115, 118, 121, 121, 126, 130, 132, 138, 138, 143, 151, 154, 154, 156, 156, 157, 166, 173, 182, 208, 220, 235]
10
Academic license - for non-commercial use only - expires 2022-11-10
Using license file /home/benedond/Apps/gurobi/gurobi950/gurobi.lic
Using gurobi.env file
Set parameter Threads to value 1
Changed value of parameter TimeLimit to 300.0
   Prev: inf  Min: 0.0  Max: inf  Default: inf
Gurobi Optimizer version 9.1.2 build v9.1.2rc0 (linux64)
Thread count: 2 physical cores, 4 logical processors, using up to 1 threads
Optimize a model with 450 rows, 410 columns and 1628 nonzeros
Model fingerprint: 0x90cf98c7
Variable types: 10 continuous, 400 integer (400 binary)
Coefficient statistics:
  Matrix range     [1e+00, 2e+02]
  Objective range  [0e+00, 0e+00]
  Bounds range     [1e+00, 1e+00]
  RHS range        [1e+00, 7e+02]
Presolve removed 195 rows and 179 columns
Presolve time: 0.02s
Presolved: 255 rows, 231 columns, 894 nonzeros
Variable types: 10 continuous, 221 integer (221 binary)
Found heuristic solution: objective 0.0000000

Explored 0 nodes (0 simplex iterations) in 0.03 seconds
Thread count was 1 (of 4 available processors)

Solution count 1: 0 

Optimal solution found (tolerance 1.00e-04)
Best objective 0.000000000000e+00, best bound 0.000000000000e+00, gap 0.0000%
